datasets/2-dimensional/CL_04_25_09.vbp
2
1000 1000 
25
72 112 30
151 98 72
139 134 4
70 55 88
176 194 54
143 183 64
151 157 90
136 149 26
80 91 94
167 118 28
180 112 72
102 158 49
116 87 54
157 85 19
57 83 28
149 66 61
68 66 84
95 167 23
116 53 67
62 56 53
68 110 54
166 198 16
141 54 9
124 61 54
151 53 77
