datasets/2-dimensional-benchmark/CL_04_25_09.txt
1000 1000 
0 30 72 112 
1 72 151 98 
2 4 139 134 
3 88 70 55 
4 54 176 194 
5 64 143 183 
6 90 151 157 
7 26 136 149 
8 94 80 91 
9 28 167 118 
10 72 180 112 
11 49 102 158 
12 54 116 87 
13 19 157 85 
14 28 57 83 
15 61 149 66 
16 84 68 66 
17 23 95 167 
18 67 116 53 
19 53 62 56 
20 54 68 110 
21 16 166 198 
22 9 141 54 
23 54 124 61 
24 77 151 53 
